 SYSTEM = Pd3C12S12
 ISTART = 0; ICHARG = 2
 ENCUT = 500
 PREC = Normal
 ISMEAR = 0; SIGMA = 0.01
 ALGO = Fast; LWAVE = .FALSE.; LCHARG = .FALSE. 
 EDIFF = 1.0E-05
 EDIFFG = -0.01; ISIF = 2; IBRION = 2; NSW = 1000
 ISYM = 0

 GGA = PE
 IVDW = 11
 VDW_RADIUS = 50.2
 VDW_CNRADIUS = 20.0
 VDW_S8 = 0.722
 VDW_SR = 1.217


